3,90
25,45
95,88
66,56
190,79
187,73
56,13
67,39
169,89
34,88
80,62
117,80
159,64
49,7
31,59
110,32
65,18
189,79
111,24
193,33
120,73
178,50
129,18
87,61
155,62
13,89
43,79
156,46
175,66
143,20
77,83
117,94
164,51
138,40
123,18
43,94
105,63
147,83
184,28
13,5
145,2
164,51
99,25
160,70
55,8
12,51
194,27
113,61
103,93
88,50
